50
14747

374 267
716 492
461 903
294 994
32 719
294 729
530 359
254 628
784 668
628 222
525 59
280 399
883 633
248 544
799 584
78 32
946 180
410 503
333 463
591 788
536 394
110 407
704 692
673 636
570 664
860 555
6 288
336 778
941 395
770 242
961 648
352 455
2 595
205 75
902 78
110 98
299 984
165 633
985 660
246 692
267 995
218 338
681 677
914 482
306 884
126 940
39 977
426 297
398 324
606 59
